
Gurobi 6.5.2 (win64) logging started 01/24/18 10:48:19

Optimize a model with 826245 rows, 516967 columns and 3963156 nonzeros
Coefficient statistics:
  Matrix range    [1e+00, 1e+00]
  Objective range [4e-04, 6e+07]
  Bounds range    [1e+00, 1e+00]
  RHS range       [0e+00, 0e+00]
Found heuristic solution: objective 0
Variable types: 0 continuous, 516967 integer (516967 binary)

Root simplex log...

Iteration    Objective       Primal Inf.    Dual Inf.      Time
       0   -3.1654430e+06   7.343800e+04   0.000000e+00      5s
   48216   -2.1776444e+06   0.000000e+00   0.000000e+00      9s

Root relaxation: objective -2.177644e+06, 48216 iterations, 5.85 seconds
Total elapsed time = 12.25s

    Nodes    |    Current Node    |     Objective Bounds      |     Work
 Expl Unexpl |  Obj  Depth IntInf | Incumbent    BestBd   Gap | It/Node Time

     0     0 -2177644.4    0 2103    0.00000 -2177644.4      -     -   14s
H    0     0                    -2157105.136 -2177644.4  0.95%     -   17s
H    0     0                    -2161242.525 -2177644.4  0.76%     -   21s
H    0     0                    -2174747.720 -2177644.4  0.13%     -   29s
     0     0 -2176130.0    0 1842 -2174747.7 -2176130.0  0.06%     -   36s
     0     0 -2176037.3    0 1919 -2174747.7 -2176037.3  0.06%     -   42s
     0     0 -2175626.5    0 1335 -2174747.7 -2175626.5  0.04%     -   53s
     0     0 -2175576.7    0 1131 -2174747.7 -2175576.7  0.04%     -   65s
     0     0 -2175424.3    0 1431 -2174747.7 -2175424.3  0.03%     -   75s
     0     0 -2175421.5    0 1423 -2174747.7 -2175421.5  0.03%     -   88s
     0     0 -2175337.5    0 1189 -2174747.7 -2175337.5  0.03%     -   99s
     0     0 -2175331.2    0 1168 -2174747.7 -2175331.2  0.03%     -  105s
     0     0 -2175296.0    0 1244 -2174747.7 -2175296.0  0.03%     -  115s
     0     0 -2175286.3    0 1100 -2174747.7 -2175286.3  0.02%     -  128s
     0     0 -2175259.2    0 1010 -2174747.7 -2175259.2  0.02%     -  138s
     0     0 -2175255.6    0 1211 -2174747.7 -2175255.6  0.02%     -  144s
     0     0 -2175246.3    0 1208 -2174747.7 -2175246.3  0.02%     -  154s
     0     0 -2175243.3    0 1213 -2174747.7 -2175243.3  0.02%     -  160s
     0     0 -2175237.7    0  927 -2174747.7 -2175237.7  0.02%     -  170s
     0     0 -2175236.3    0  935 -2174747.7 -2175236.3  0.02%     -  175s
     0     0 -2175222.4    0  941 -2174747.7 -2175222.4  0.02%     -  183s
     0     0 -2175220.8    0  947 -2174747.7 -2175220.8  0.02%     -  199s
     0     0 -2175216.9    0  918 -2174747.7 -2175216.9  0.02%     -  207s
H    0     0                    -2174943.322 -2175216.9  0.01%     -  214s
     0     0 -2175216.9    0  918 -2174943.3 -2175216.9  0.01%     -  217s
     0     0 -2175211.9    0  911 -2174943.3 -2175211.9  0.01%     -  224s
     0     0 -2175208.4    0  800 -2174943.3 -2175208.4  0.01%     -  236s
     0     0 -2175208.4    0  809 -2174943.3 -2175208.4  0.01%     -  242s
     0     0 -2175207.9    0  767 -2174943.3 -2175207.9  0.01%     -  251s
     0     0 -2175207.9    0  766 -2174943.3 -2175207.9  0.01%     -  257s
     0     0 -2175204.3    0  834 -2174943.3 -2175204.3  0.01%     -  265s
     0     0 -2175195.6    0  762 -2174943.3 -2175195.6  0.01%     -  277s
     0     0 -2175185.1    0  801 -2174943.3 -2175185.1  0.01%     -  293s
     0     0 -2175181.6    0  859 -2174943.3 -2175181.6  0.01%     -  302s
     0     0 -2175180.8    0  884 -2174943.3 -2175180.8  0.01%     -  307s
     0     0 -2175175.4    0  870 -2174943.3 -2175175.4  0.01%     -  316s
     0     0 -2175174.4    0  883 -2174943.3 -2175174.4  0.01%     -  323s
     0     0 -2175172.3    0  870 -2174943.3 -2175172.3  0.01%     -  332s
     0     0 -2175172.2    0  874 -2174943.3 -2175172.2  0.01%     -  338s
     0     0 -2175172.0    0  859 -2174943.3 -2175172.0  0.01%     -  354s
     0     0 -2175172.0    0  869 -2174943.3 -2175172.0  0.01%     -  370s
     0     0 -2175171.9    0  867 -2174943.3 -2175171.9  0.01%     -  506s
H    0     0                    -2175068.607 -2175171.9  0.00%     -  534s

Cutting planes:
  Gomory: 51
  MIR: 12
  Zero half: 270
  Mod-K: 4

Explored 0 nodes (51189 simplex iterations) in 534.46 seconds
Thread count was 24 (of 24 available processors)

Optimal solution found (tolerance 1.00e-04)
Best objective -2.175068606861e+06, best bound -2.175171899492e+06, gap 0.0047%
Optimal objective value: -2175068.6068614437
Gurobi 6.5.2 (win64) logging started 01/24/18 11:44:51

Optimize a model with 826245 rows, 516967 columns and 3963156 nonzeros
Coefficient statistics:
  Matrix range    [1e+00, 1e+00]
  Objective range [4e-04, 6e+07]
  Bounds range    [1e+00, 1e+00]
  RHS range       [0e+00, 0e+00]
Found heuristic solution: objective 0
Variable types: 0 continuous, 516967 integer (516967 binary)

Root simplex log...

Iteration    Objective       Primal Inf.    Dual Inf.      Time
   13349   -2.6406141e+06   5.341500e+04   0.000000e+00      5s
   48240   -2.1776444e+06   0.000000e+00   0.000000e+00      9s

Root relaxation: objective -2.177644e+06, 48240 iterations, 5.87 seconds
Total elapsed time = 11.69s

    Nodes    |    Current Node    |     Objective Bounds      |     Work
 Expl Unexpl |  Obj  Depth IntInf | Incumbent    BestBd   Gap | It/Node Time

     0     0 -2177644.4    0 2103    0.00000 -2177644.4      -     -   13s
H    0     0                    -2156594.736 -2177644.4  0.98%     -   15s
H    0     0                    -2174640.639 -2177644.4  0.14%     -   23s
     0     0 -2176126.4    0 1811 -2174640.6 -2176126.4  0.07%     -   30s
     0     0 -2176033.7    0 1907 -2174640.6 -2176033.7  0.06%     -   41s
     0     0 -2175621.1    0 1436 -2174640.6 -2175621.1  0.05%     -   50s
     0     0 -2175570.3    0 1320 -2174640.6 -2175570.3  0.04%     -   62s
     0     0 -2175449.5    0 1333 -2174640.6 -2175449.5  0.04%     -   70s
     0     0 -2175442.2    0 1182 -2174640.6 -2175442.2  0.04%     -   75s
     0     0 -2175369.7    0 1346 -2174640.6 -2175369.7  0.03%     -   82s
     0     0 -2175367.3    0 1390 -2174640.6 -2175367.3  0.03%     -   94s
     0     0 -2175305.8    0 1482 -2174640.6 -2175305.8  0.03%     -  102s
     0     0 -2175297.0    0 1504 -2174640.6 -2175297.0  0.03%     -  107s
     0     0 -2175263.9    0 1115 -2174640.6 -2175263.9  0.03%     -  115s
     0     0 -2175263.1    0 1095 -2174640.6 -2175263.1  0.03%     -  119s
     0     0 -2175251.5    0 1105 -2174640.6 -2175251.5  0.03%     -  127s
     0     0 -2175250.1    0 1114 -2174640.6 -2175250.1  0.03%     -  134s
     0     0 -2175233.9    0 1382 -2174640.6 -2175233.9  0.03%     -  142s
     0     0 -2175233.0    0 1395 -2174640.6 -2175233.0  0.03%     -  153s
     0     0 -2175229.7    0 1410 -2174640.6 -2175229.7  0.03%     -  161s
H    0     0                    -2175069.314 -2175229.7  0.01%     -  168s

Cutting planes:
  Gomory: 50
  MIR: 11
  Zero half: 263

Explored 0 nodes (51264 simplex iterations) in 168.16 seconds
Thread count was 24 (of 24 available processors)

Optimal solution found (tolerance 1.00e-04)
Best objective -2.175069314475e+06, best bound -2.175229685755e+06, gap 0.0074%
Optimal objective value: -2175069.314474546
Gurobi 6.5.2 (win64) logging started 01/24/18 11:55:36

Optimize a model with 826245 rows, 516967 columns and 3963156 nonzeros
Coefficient statistics:
  Matrix range    [1e+00, 1e+00]
  Objective range [4e-04, 6e+07]
  Bounds range    [1e+00, 1e+00]
  RHS range       [0e+00, 0e+00]
Found heuristic solution: objective 0
Variable types: 0 continuous, 516967 integer (516967 binary)

Root simplex log...

Iteration    Objective       Primal Inf.    Dual Inf.      Time
   13465   -2.6593777e+06   5.324900e+04   0.000000e+00      5s
   48251   -2.2050223e+06   0.000000e+00   0.000000e+00      9s

Root relaxation: objective -2.205022e+06, 48251 iterations, 5.72 seconds
Total elapsed time = 11.42s

    Nodes    |    Current Node    |     Objective Bounds      |     Work
 Expl Unexpl |  Obj  Depth IntInf | Incumbent    BestBd   Gap | It/Node Time

     0     0 -2205022.3    0 2262    0.00000 -2205022.3      -     -   12s
H    0     0                    -2179725.036 -2205022.3  1.16%     -   15s
H    0     0                    -2202129.161 -2205022.3  0.13%     -   29s
     0     0 -2203571.2    0 1349 -2202129.2 -2203571.2  0.07%     -   35s
     0     0 -2203489.0    0 1327 -2202129.2 -2203489.0  0.06%     -   46s
     0     0 -2202967.7    0 1216 -2202129.2 -2202967.7  0.04%     -   55s
     0     0 -2202935.0    0 1318 -2202129.2 -2202935.0  0.04%     -   59s
     0     0 -2202813.4    0 1301 -2202129.2 -2202813.4  0.03%     -   67s
     0     0 -2202796.5    0 1354 -2202129.2 -2202796.5  0.03%     -   79s
     0     0 -2202759.4    0 1132 -2202129.2 -2202759.4  0.03%     -   87s
     0     0 -2202757.3    0 1111 -2202129.2 -2202757.3  0.03%     -   92s
     0     0 -2202735.3    0 1181 -2202129.2 -2202735.3  0.03%     -   99s
     0     0 -2202730.4    0 1291 -2202129.2 -2202730.4  0.03%     -  104s
     0     0 -2202716.3    0  955 -2202129.2 -2202716.3  0.03%     -  112s
     0     0 -2202715.4    0  994 -2202129.2 -2202715.4  0.03%     -  119s
     0     0 -2202712.0    0  980 -2202129.2 -2202712.0  0.03%     -  125s
     0     0 -2202711.7    0  952 -2202129.2 -2202711.7  0.03%     -  138s
     0     0 -2202710.2    0 1111 -2202129.2 -2202710.2  0.03%     -  145s
     0     0 -2202710.2    0 1017 -2202129.2 -2202710.2  0.03%     -  150s
     0     0 -2202709.5    0 1098 -2202129.2 -2202709.5  0.03%     -  158s
     0     0 -2202709.3    0 1048 -2202129.2 -2202709.3  0.03%     -  162s
     0     0 -2202708.9    0 1113 -2202129.2 -2202708.9  0.03%     -  170s
     0     0 -2202708.9    0 1109 -2202129.2 -2202708.9  0.03%     -  174s
     0     0 -2202708.8    0 1107 -2202129.2 -2202708.8  0.03%     -  181s
     0     0 -2202708.7    0 1198 -2202129.2 -2202708.7  0.03%     -  185s
     0     0 -2202707.5    0 1198 -2202129.2 -2202707.5  0.03%     -  193s
     0     0 -2202704.3    0 1081 -2202129.2 -2202704.3  0.03%     -  208s
     0     0 -2202703.4    0 1229 -2202129.2 -2202703.4  0.03%     -  212s
     0     0 -2202702.2    0 1229 -2202129.2 -2202702.2  0.03%     -  218s
     0     0 -2202702.1    0 1232 -2202129.2 -2202702.1  0.03%     -  223s
     0     0 -2202700.8    0 1233 -2202129.2 -2202700.8  0.03%     -  234s
     0     0 -2202700.3    0 1238 -2202129.2 -2202700.3  0.03%     -  248s
     0     0 -2202700.1    0 1224 -2202129.2 -2202700.1  0.03%     -  255s
H    0     2                    -2202534.743 -2202700.1  0.01%     -  334s
     0     2 -2202700.1    0 1224 -2202534.7 -2202700.1  0.01%     -  334s

Cutting planes:
  Gomory: 47
  MIR: 10
  Zero half: 246
  Mod-K: 4

Explored 1 nodes (50640 simplex iterations) in 334.94 seconds
Thread count was 24 (of 24 available processors)

Optimal solution found (tolerance 1.00e-04)
Best objective -2.202534743400e+06, best bound -2.202697596483e+06, gap 0.0074%
Optimal objective value: -2202534.7433997835